decision_x1=[0,7];
decision_x2=[0,7];
decision_x3=[0,7];
decision_x4=[0,7];
decision_x5=[0,7];
decision_x6=[0,7];
decision_x7=[0,7];
decision_x8=[0,7];
decision_x9=[0,7];
decision_x10=[0,7];
decision_x11=[0,7];
decision_x12=[0,7];
decision_x13=[0,7];
decision_x14=[0,7];
decision_x15=[0,7];
decision_x16=[0,7];
decision_x17=[0,7];
decision_x18=[0,7];
decision_x19=[0,7];
decision_x20=[0,7];
random_y1=[0,7];
random_y2=[0,7];
random_y3=[0,7];
random_y4=[0,7];
random_y5=[0,7];
random_y6=[0,7];
random_y7=[0,7];
random_y8=[0,7];
random_y9=[0,7];
constraint_x2_x1=[
0,0,7.4|
0,1,9.8|
0,2,9|
0,3,2.3|
0,4,0.11|
0,5,6.2|
0,6,3.8|
0,7,8.9|
1,0,3|
1,1,2.2|
1,2,5.5|
1,3,0.14|
1,4,4.7|
1,5,3.9|
1,6,1.2|
1,7,9.1|
2,0,0.62|
2,1,2|
2,2,8.5|
2,3,7.8|
2,4,4.4|
2,5,0.48|
2,6,1.3|
2,7,2.9|
3,0,3.8|
3,1,7.8|
3,2,8.1|
3,3,0.1|
3,4,0.061|
3,5,9|
3,6,6.2|
3,7,8.5|
4,0,9.3|
4,1,2.4|
4,2,0.34|
4,3,3.5|
4,4,4.3|
4,5,0.85|
4,6,8.3|
4,7,7|
5,0,9.7|
5,1,9.4|
5,2,2.2|
5,3,9.1|
5,4,0.58|
5,5,3.9|
5,6,5.1|
5,7,3.1|
6,0,2|
6,1,0.36|
6,2,9.8|
6,3,0.5|
6,4,5.7|
6,5,2.1|
6,6,4.7|
6,7,9.8|
7,0,2.2|
7,1,9.4|
7,2,4.8|
7,3,5|
7,4,1.6|
7,5,7.3|
7,6,2.5|
7,7,4.5|
];
constraint_x3_x2=[
0,0,4.2|
0,1,2.8|
0,2,3.9|
0,3,3.4|
0,4,0.59|
0,5,6.9|
0,6,9.7|
0,7,1.6|
1,0,3.6|
1,1,1.9|
1,2,7.1|
1,3,8.2|
1,4,0.17|
1,5,8.1|
1,6,3.8|
1,7,6|
2,0,8.5|
2,1,2.4|
2,2,0.098|
2,3,2.7|
2,4,7.4|
2,5,3.4|
2,6,9.7|
2,7,5.2|
3,0,6.3|
3,1,9.3|
3,2,1.6|
3,3,5.2|
3,4,3.8|
3,5,5.5|
3,6,7.8|
3,7,8.5|
4,0,0.42|
4,1,0.62|
4,2,3.4|
4,3,5.1|
4,4,3.9|
4,5,9.5|
4,6,8|
4,7,9.4|
5,0,5.7|
5,1,4.3|
5,2,6.2|
5,3,3.1|
5,4,5.9|
5,5,5.7|
5,6,5.9|
5,7,9.5|
6,0,1.8|
6,1,1.4|
6,2,1.6|
6,3,6.5|
6,4,1.1|
6,5,1.9|
6,6,5.8|
6,7,5.2|
7,0,1.3|
7,1,2.3|
7,2,5.5|
7,3,6.1|
7,4,0.77|
7,5,6.9|
7,6,4.7|
7,7,9.3|
];
constraint_x4_x3=[
0,0,2.5|
0,1,1.1|
0,2,4.5|
0,3,7.6|
0,4,0.6|
0,5,5.4|
0,6,4.3|
0,7,3.1|
1,0,2.3|
1,1,5.4|
1,2,6.5|
1,3,4.3|
1,4,0.055|
1,5,6.1|
1,6,6.5|
1,7,4.9|
2,0,4.1|
2,1,4.9|
2,2,4.1|
2,3,0.85|
2,4,2.5|
2,5,4.8|
2,6,0.9|
2,7,8.2|
3,0,0.31|
3,1,5.6|
3,2,9.1|
3,3,7.7|
3,4,4.9|
3,5,1|
3,6,0.99|
3,7,7.3|
4,0,0.83|
4,1,8|
4,2,3.8|
4,3,7|
4,4,3.5|
4,5,7|
4,6,8.7|
4,7,9.2|
5,0,4.1|
5,1,2.7|
5,2,6.5|
5,3,7.6|
5,4,1.5|
5,5,5.2|
5,6,2.8|
5,7,0.18|
6,0,1.6|
6,1,2.2|
6,2,7.4|
6,3,3.4|
6,4,3.3|
6,5,0.4|
6,6,5.4|
6,7,2.1|
7,0,4.3|
7,1,0.94|
7,2,1.7|
7,3,9.7|
7,4,0.16|
7,5,9.3|
7,6,1.8|
7,7,2.9|
];
constraint_x5_x1=[
0,0,1.2|
0,1,6.2|
0,2,4.3|
0,3,0.35|
0,4,0.75|
0,5,4|
0,6,5.6|
0,7,1.9|
1,0,0.88|
1,1,5.7|
1,2,5.5|
1,3,7.3|
1,4,9.8|
1,5,4|
1,6,8.9|
1,7,8.1|
2,0,6.4|
2,1,4.4|
2,2,3.4|
2,3,1.8|
2,4,5.6|
2,5,3.1|
2,6,4.9|
2,7,5.7|
3,0,4.9|
3,1,7|
3,2,2.5|
3,3,3.5|
3,4,6.2|
3,5,4.1|
3,6,9|
3,7,8.2|
4,0,4.8|
4,1,5.2|
4,2,6|
4,3,2.3|
4,4,5.3|
4,5,7.5|
4,6,7|
4,7,7.5|
5,0,6.6|
5,1,4.8|
5,2,2.6|
5,3,4.5|
5,4,1.2|
5,5,10|
5,6,1.1|
5,7,3.4|
6,0,2.6|
6,1,2|
6,2,0.78|
6,3,8|
6,4,5.7|
6,5,2.8|
6,6,9.7|
6,7,6.7|
7,0,7.4|
7,1,4.6|
7,2,8|
7,3,6.6|
7,4,7.7|
7,5,8.6|
7,6,0.15|
7,7,10|
];
constraint_x6_x2=[
0,0,1.8|
0,1,4.4|
0,2,5|
0,3,5.6|
0,4,0.64|
0,5,5.1|
0,6,6.9|
0,7,1.8|
1,0,1.8|
1,1,8|
1,2,6.5|
1,3,9.9|
1,4,6|
1,5,2.8|
1,6,1.9|
1,7,0.47|
2,0,1|
2,1,1.2|
2,2,3.6|
2,3,8.5|
2,4,5.8|
2,5,4.5|
2,6,6.2|
2,7,4.4|
3,0,3|
3,1,7.3|
3,2,9.8|
3,3,4.6|
3,4,3.2|
3,5,7.1|
3,6,3.3|
3,7,7.6|
4,0,2.8|
4,1,3.1|
4,2,5.4|
4,3,4.7|
4,4,2.8|
4,5,8.5|
4,6,5.4|
4,7,8.3|
5,0,0.6|
5,1,6.3|
5,2,0.32|
5,3,0.55|
5,4,5.9|
5,5,7|
5,6,5.7|
5,7,4.1|
6,0,1.8|
6,1,3.3|
6,2,9.1|
6,3,8.9|
6,4,8.7|
6,5,6.7|
6,6,3.6|
6,7,1.3|
7,0,10|
7,1,9.2|
7,2,7.4|
7,3,5.7|
7,4,4.6|
7,5,1.2|
7,6,7.1|
7,7,8.7|
];
constraint_x7_x3=[
0,0,4.9|
0,1,6|
0,2,0.34|
0,3,5.8|
0,4,2.3|
0,5,7.5|
0,6,2.4|
0,7,6.9|
1,0,9.2|
1,1,5.6|
1,2,7.6|
1,3,2.9|
1,4,0.26|
1,5,6.5|
1,6,4.9|
1,7,3.1|
2,0,8.4|
2,1,8.1|
2,2,2.2|
2,3,6|
2,4,7.4|
2,5,7.3|
2,6,1.6|
2,7,5|
3,0,1.8|
3,1,5.9|
3,2,2.8|
3,3,6.3|
3,4,8.2|
3,5,7.8|
3,6,4.3|
3,7,8.2|
4,0,0.17|
4,1,8.8|
4,2,1.6|
4,3,2.5|
4,4,6.1|
4,5,5.3|
4,6,5.2|
4,7,4.9|
5,0,5.8|
5,1,6.2|
5,2,2.8|
5,3,4|
5,4,3.6|
5,5,4.7|
5,6,0.84|
5,7,8.5|
6,0,1.2|
6,1,5.4|
6,2,9.7|
6,3,3.1|
6,4,8.5|
6,5,2.5|
6,6,2.8|
6,7,9|
7,0,1.4|
7,1,7.2|
7,2,0.31|
7,3,2.1|
7,4,7.1|
7,5,5.4|
7,6,1.6|
7,7,9.3|
];
constraint_x8_x4=[
0,0,6|
0,1,2.1|
0,2,3.5|
0,3,9.5|
0,4,8.2|
0,5,4.9|
0,6,8|
0,7,1.9|
1,0,2.8|
1,1,2.7|
1,2,4|
1,3,7.1|
1,4,1.3|
1,5,6.8|
1,6,3.6|
1,7,2.6|
2,0,1.8|
2,1,3.8|
2,2,9.8|
2,3,2.6|
2,4,4.4|
2,5,0.28|
2,6,3.6|
2,7,3.7|
3,0,9.6|
3,1,3.9|
3,2,6.3|
3,3,9.8|
3,4,2.5|
3,5,2.5|
3,6,4.6|
3,7,6.6|
4,0,8.6|
4,1,9.7|
4,2,0.72|
4,3,5.9|
4,4,5.9|
4,5,5.9|
4,6,4.3|
4,7,4|
5,0,6.6|
5,1,4.8|
5,2,1.5|
5,3,2.8|
5,4,6.1|
5,5,5.8|
5,6,5.8|
5,7,6.2|
6,0,6.2|
6,1,1.3|
6,2,8.8|
6,3,9|
6,4,2.4|
6,5,7.3|
6,6,2.7|
6,7,0.069|
7,0,6.4|
7,1,9|
7,2,1.8|
7,3,5.1|
7,4,6.5|
7,5,9.2|
7,6,4.2|
7,7,8.9|
];
constraint_x9_x5=[
0,0,8.5|
0,1,0.41|
0,2,4.1|
0,3,9.1|
0,4,4.8|
0,5,2|
0,6,8.9|
0,7,0.48|
1,0,6.5|
1,1,8.2|
1,2,6|
1,3,7.2|
1,4,6|
1,5,8.4|
1,6,6.4|
1,7,6.9|
2,0,7.1|
2,1,3.7|
2,2,7|
2,3,3.1|
2,4,3.2|
2,5,3.5|
2,6,6.2|
2,7,5.7|
3,0,2.5|
3,1,8.4|
3,2,4.3|
3,3,4.9|
3,4,6.2|
3,5,6.5|
3,6,3.5|
3,7,7.7|
4,0,9.8|
4,1,2|
4,2,1.9|
4,3,2.9|
4,4,4|
4,5,7.6|
4,6,6.9|
4,7,4.2|
5,0,8|
5,1,3.9|
5,2,5.3|
5,3,6.6|
5,4,0.96|
5,5,2.2|
5,6,8.1|
5,7,0.54|
6,0,1.6|
6,1,3.5|
6,2,6.3|
6,3,4.6|
6,4,3.1|
6,5,7.8|
6,6,7.8|
6,7,7.6|
7,0,0.21|
7,1,5.6|
7,2,7.7|
7,3,1.2|
7,4,6.2|
7,5,9.1|
7,6,6.3|
7,7,3.5|
];
constraint_x10_x6=[
0,0,1.1|
0,1,8.4|
0,2,0.46|
0,3,4.7|
0,4,8.6|
0,5,1.7|
0,6,7.6|
0,7,9.4|
1,0,1.2|
1,1,5.6|
1,2,0.79|
1,3,3.4|
1,4,1.9|
1,5,4|
1,6,9.6|
1,7,0.024|
2,0,5.8|
2,1,3.7|
2,2,8.8|
2,3,6.2|
2,4,3.3|
2,5,0.72|
2,6,7.9|
2,7,3.6|
3,0,1.6|
3,1,7.6|
3,2,7.6|
3,3,0.26|
3,4,5.8|
3,5,8.1|
3,6,6.9|
3,7,8.7|
4,0,3.5|
4,1,5.3|
4,2,4.3|
4,3,3.5|
4,4,7.7|
4,5,6.7|
4,6,0.82|
4,7,1.4|
5,0,2|
5,1,6.5|
5,2,8.8|
5,3,3.8|
5,4,3.3|
5,5,2.3|
5,6,0.94|
5,7,5.2|
6,0,5|
6,1,2.4|
6,2,0.69|
6,3,6.3|
6,4,2.6|
6,5,0.89|
6,6,2.4|
6,7,5.3|
7,0,3.5|
7,1,5.5|
7,2,7.4|
7,3,2.2|
7,4,0.79|
7,5,3.3|
7,6,7.1|
7,7,5.2|
];
constraint_x11_x7=[
0,0,2.4|
0,1,2.7|
0,2,5.1|
0,3,9.3|
0,4,5.9|
0,5,1.3|
0,6,0.41|
0,7,6.8|
1,0,7.9|
1,1,9.2|
1,2,5|
1,3,5|
1,4,8.3|
1,5,9.2|
1,6,6|
1,7,6.4|
2,0,3.4|
2,1,0.058|
2,2,0.77|
2,3,5.2|
2,4,3.4|
2,5,0.38|
2,6,7.4|
2,7,4.4|
3,0,6.5|
3,1,3.4|
3,2,1.9|
3,3,4.7|
3,4,4.7|
3,5,5.7|
3,6,6.9|
3,7,8.8|
4,0,4.1|
4,1,7.2|
4,2,3.4|
4,3,0.55|
4,4,5.8|
4,5,1.4|
4,6,0.48|
4,7,4.5|
5,0,4.3|
5,1,4.3|
5,2,0.24|
5,3,9.1|
5,4,4.7|
5,5,2.9|
5,6,9.6|
5,7,9.2|
6,0,6.9|
6,1,7.8|
6,2,5.8|
6,3,9.8|
6,4,7.7|
6,5,8.2|
6,6,9.7|
6,7,8.8|
7,0,9|
7,1,6.3|
7,2,9.5|
7,3,9|
7,4,3.9|
7,5,9.2|
7,6,4.2|
7,7,1.7|
];
constraint_x12_x8=[
0,0,4.8|
0,1,2.4|
0,2,10|
0,3,1.1|
0,4,3.5|
0,5,4.5|
0,6,0.44|
0,7,1|
1,0,7.1|
1,1,5|
1,2,7.1|
1,3,4.6|
1,4,9.6|
1,5,2.9|
1,6,6.6|
1,7,8|
2,0,5.6|
2,1,0.2|
2,2,9.8|
2,3,2.9|
2,4,8.8|
2,5,8|
2,6,1.3|
2,7,3.7|
3,0,5.3|
3,1,4.9|
3,2,2.2|
3,3,2.5|
3,4,0.69|
3,5,6.3|
3,6,7|
3,7,5.5|
4,0,3.5|
4,1,4|
4,2,8.8|
4,3,5.8|
4,4,4.5|
4,5,6.3|
4,6,8.1|
4,7,0.0075|
5,0,5.6|
5,1,6.9|
5,2,9.1|
5,3,5.5|
5,4,8.9|
5,5,8.1|
5,6,6|
5,7,9.9|
6,0,4.8|
6,1,8.5|
6,2,5.5|
6,3,3.3|
6,4,2.7|
6,5,1.7|
6,6,7.4|
6,7,8.5|
7,0,8.8|
7,1,5.5|
7,2,4|
7,3,6.4|
7,4,8.6|
7,5,4.6|
7,6,5.4|
7,7,1.7|
];
constraint_x13_x9=[
0,0,6.2|
0,1,0.48|
0,2,6.4|
0,3,3.9|
0,4,0.74|
0,5,6.2|
0,6,9.7|
0,7,8.7|
1,0,4.5|
1,1,0.38|
1,2,4.4|
1,3,7.1|
1,4,5.7|
1,5,4.6|
1,6,4.4|
1,7,7.3|
2,0,5.5|
2,1,5.2|
2,2,4.5|
2,3,5.1|
2,4,1.8|
2,5,8|
2,6,9.9|
2,7,7.8|
3,0,4.5|
3,1,0.59|
3,2,0.24|
3,3,1.9|
3,4,5.5|
3,5,2|
3,6,7.3|
3,7,2.7|
4,0,8.1|
4,1,2.3|
4,2,7.6|
4,3,7.4|
4,4,5.8|
4,5,2.2|
4,6,3.7|
4,7,0.24|
5,0,7.4|
5,1,1.8|
5,2,3.3|
5,3,2.4|
5,4,9.4|
5,5,2|
5,6,2.4|
5,7,8.8|
6,0,1.8|
6,1,6.1|
6,2,9.7|
6,3,2.1|
6,4,5.7|
6,5,7.1|
6,6,4.3|
6,7,5.5|
7,0,7|
7,1,4.9|
7,2,8.6|
7,3,1.4|
7,4,4.5|
7,5,4.2|
7,6,6.1|
7,7,8.1|
];
constraint_x14_x10=[
0,0,0.12|
0,1,1.1|
0,2,9.9|
0,3,2.5|
0,4,2.5|
0,5,6.6|
0,6,0.7|
0,7,9.4|
1,0,2.6|
1,1,4.5|
1,2,7.1|
1,3,8.7|
1,4,0.55|
1,5,4.6|
1,6,7.5|
1,7,4.7|
2,0,6.7|
2,1,4.4|
2,2,0.078|
2,3,0.95|
2,4,0.66|
2,5,3.5|
2,6,2.2|
2,7,0.63|
3,0,4.4|
3,1,5.5|
3,2,1.3|
3,3,5.9|
3,4,7.8|
3,5,8.9|
3,6,5.6|
3,7,8.9|
4,0,3.7|
4,1,1.7|
4,2,9.1|
4,3,0.91|
4,4,0.92|
4,5,3.8|
4,6,4.1|
4,7,2|
5,0,5.4|
5,1,5.8|
5,2,9.6|
5,3,8|
5,4,5.8|
5,5,8.5|
5,6,4.6|
5,7,3.9|
6,0,5.7|
6,1,7.9|
6,2,4.8|
6,3,4|
6,4,3.6|
6,5,5.5|
6,6,4.4|
6,7,2.2|
7,0,9.7|
7,1,0.57|
7,2,4|
7,3,2|
7,4,5.9|
7,5,9.9|
7,6,2.4|
7,7,5.6|
];
constraint_x15_x11=[
0,0,6.2|
0,1,8.2|
0,2,5.9|
0,3,2.9|
0,4,1.4|
0,5,0.37|
0,6,7.3|
0,7,9.5|
1,0,6.9|
1,1,8.4|
1,2,3.2|
1,3,1.4|
1,4,5.8|
1,5,5|
1,6,2.1|
1,7,6.2|
2,0,4.5|
2,1,8.4|
2,2,9.5|
2,3,4.9|
2,4,6.3|
2,5,9.1|
2,6,0.93|
2,7,0.85|
3,0,6.7|
3,1,0.92|
3,2,5.7|
3,3,8.5|
3,4,7.3|
3,5,3.4|
3,6,9.5|
3,7,3.9|
4,0,2.9|
4,1,1.5|
4,2,7.4|
4,3,9.6|
4,4,2|
4,5,3.8|
4,6,1.3|
4,7,7.7|
5,0,4.1|
5,1,5|
5,2,3.3|
5,3,7.1|
5,4,6.6|
5,5,6.8|
5,6,1.7|
5,7,2.8|
6,0,1.6|
6,1,6.8|
6,2,6.7|
6,3,9.7|
6,4,0.43|
6,5,7.7|
6,6,5.9|
6,7,4.7|
7,0,3.7|
7,1,3.5|
7,2,7.7|
7,3,5.2|
7,4,6.6|
7,5,10|
7,6,8.4|
7,7,0.8|
];
constraint_x16_x12=[
0,0,1.2|
0,1,8.3|
0,2,0.59|
0,3,8.5|
0,4,3.8|
0,5,2.1|
0,6,6.5|
0,7,6.2|
1,0,6.2|
1,1,0.6|
1,2,4.2|
1,3,0.87|
1,4,0.96|
1,5,1.2|
1,6,3.2|
1,7,7|
2,0,8.9|
2,1,5.6|
2,2,7.7|
2,3,9.1|
2,4,4.6|
2,5,8.2|
2,6,4.2|
2,7,2.3|
3,0,5.4|
3,1,4.9|
3,2,5.4|
3,3,6.4|
3,4,7.8|
3,5,1.9|
3,6,6.6|
3,7,7.6|
4,0,6.7|
4,1,2.9|
4,2,5.8|
4,3,2.5|
4,4,7.2|
4,5,6.9|
4,6,7.3|
4,7,6.4|
5,0,1.5|
5,1,1.9|
5,2,7.4|
5,3,2.4|
5,4,0.31|
5,5,4.9|
5,6,1.6|
5,7,2|
6,0,8.7|
6,1,5|
6,2,3.6|
6,3,6.9|
6,4,4.3|
6,5,7.6|
6,6,3.9|
6,7,3.2|
7,0,8.1|
7,1,4.2|
7,2,1.7|
7,3,9.1|
7,4,3.1|
7,5,5.5|
7,6,0.53|
7,7,2.7|
];
constraint_x17_x13=[
0,0,5|
0,1,0.11|
0,2,2.3|
0,3,8.5|
0,4,7|
0,5,0.55|
0,6,0.0055|
0,7,0.61|
1,0,3.9|
1,1,4.6|
1,2,8.6|
1,3,5.4|
1,4,6.3|
1,5,5.4|
1,6,5.6|
1,7,2.5|
2,0,9.4|
2,1,3.1|
2,2,9|
2,3,6.2|
2,4,4.1|
2,5,8.7|
2,6,1.4|
2,7,4.3|
3,0,6.8|
3,1,3.4|
3,2,1.9|
3,3,8.4|
3,4,7.2|
3,5,9|
3,6,7|
3,7,4.8|
4,0,5.3|
4,1,8.2|
4,2,7.8|
4,3,6.5|
4,4,2.6|
4,5,5.9|
4,6,3.5|
4,7,2.1|
5,0,7.5|
5,1,0.032|
5,2,0.36|
5,3,7.8|
5,4,8.2|
5,5,9.3|
5,6,9.1|
5,7,5.1|
6,0,1.9|
6,1,1.1|
6,2,8.9|
6,3,6.2|
6,4,8.6|
6,5,8.2|
6,6,6.1|
6,7,0.08|
7,0,3.1|
7,1,3.5|
7,2,3.6|
7,3,6.5|
7,4,2|
7,5,6.3|
7,6,8.4|
7,7,3.1|
];
constraint_x18_x14=[
0,0,7.9|
0,1,8.3|
0,2,8.3|
0,3,5.4|
0,4,3.8|
0,5,3.9|
0,6,5.5|
0,7,2.2|
1,0,5.8|
1,1,5.5|
1,2,4.5|
1,3,3.7|
1,4,4.5|
1,5,2.6|
1,6,4.9|
1,7,9.5|
2,0,0.17|
2,1,5.9|
2,2,7.7|
2,3,7.4|
2,4,3.2|
2,5,6.2|
2,6,7.8|
2,7,4.3|
3,0,7.5|
3,1,2.9|
3,2,5.9|
3,3,10|
3,4,9.3|
3,5,2.4|
3,6,9.6|
3,7,2.8|
4,0,4.2|
4,1,5.4|
4,2,1.1|
4,3,9.4|
4,4,3.6|
4,5,9.7|
4,6,0.97|
4,7,7.5|
5,0,0.6|
5,1,0.96|
5,2,7|
5,3,3.1|
5,4,2.7|
5,5,2.5|
5,6,2.6|
5,7,4.8|
6,0,0.6|
6,1,4.6|
6,2,8.7|
6,3,1.9|
6,4,3.1|
6,5,5.2|
6,6,2.4|
6,7,5.9|
7,0,8.6|
7,1,2.7|
7,2,0.22|
7,3,9.3|
7,4,4|
7,5,1.5|
7,6,2|
7,7,7.1|
];
constraint_x19_x15=[
0,0,9|
0,1,0.26|
0,2,7.6|
0,3,5.3|
0,4,3.5|
0,5,4.5|
0,6,8.4|
0,7,0.43|
1,0,0.82|
1,1,9.6|
1,2,6.7|
1,3,3.5|
1,4,2.3|
1,5,2.4|
1,6,8.8|
1,7,2.7|
2,0,1.9|
2,1,9.1|
2,2,6.7|
2,3,1|
2,4,7.6|
2,5,1.9|
2,6,5.6|
2,7,3.6|
3,0,8.4|
3,1,2.6|
3,2,7.5|
3,3,3|
3,4,7.4|
3,5,2.5|
3,6,7.1|
3,7,0.96|
4,0,1.2|
4,1,8.5|
4,2,7.9|
4,3,3.7|
4,4,1.7|
4,5,9.8|
4,6,1.5|
4,7,7.6|
5,0,4.2|
5,1,0.92|
5,2,7.9|
5,3,9.7|
5,4,6.3|
5,5,4.1|
5,6,6.1|
5,7,5.5|
6,0,5|
6,1,0.8|
6,2,2.5|
6,3,1.7|
6,4,0.019|
6,5,2.9|
6,6,2|
6,7,6.8|
7,0,2.5|
7,1,0.086|
7,2,3|
7,3,8.5|
7,4,0.18|
7,5,5.2|
7,6,6.5|
7,7,3.1|
];
constraint_x20_x16=[
0,0,8.6|
0,1,4.5|
0,2,1.6|
0,3,9.6|
0,4,3.7|
0,5,0.93|
0,6,7.4|
0,7,4.7|
1,0,1.8|
1,1,2.2|
1,2,6.6|
1,3,6.8|
1,4,7.6|
1,5,6.2|
1,6,7.6|
1,7,0.18|
2,0,3.5|
2,1,0.45|
2,2,9.7|
2,3,1|
2,4,7.5|
2,5,9.1|
2,6,6.7|
2,7,4.8|
3,0,3.3|
3,1,4.9|
3,2,2.5|
3,3,0.38|
3,4,8.4|
3,5,8.6|
3,6,3.8|
3,7,2.3|
4,0,0.65|
4,1,7.6|
4,2,8.5|
4,3,7.5|
4,4,9|
4,5,9.9|
4,6,1.4|
4,7,3.2|
5,0,0.012|
5,1,9.1|
5,2,6.8|
5,3,9.2|
5,4,3.8|
5,5,0.76|
5,6,7.1|
5,7,5.6|
6,0,8.4|
6,1,7.9|
6,2,5|
6,3,1.3|
6,4,7.1|
6,5,7.2|
6,6,2.5|
6,7,7.9|
7,0,3.9|
7,1,5.3|
7,2,5.3|
7,3,3.1|
7,4,7.3|
7,5,0.52|
7,6,5.9|
7,7,3.1|
];
constraint_x1_y1=[
0,0,4.8|
0,1,6.8|
0,2,8.6|
0,3,4.4|
0,4,8.9|
0,5,1.7|
0,6,1.3|
0,7,5.9|
1,0,9.1|
1,1,0.38|
1,2,3.7|
1,3,7.8|
1,4,4.7|
1,5,1.8|
1,6,8.7|
1,7,3.7|
2,0,0.0069|
2,1,4.8|
2,2,4.9|
2,3,5.4|
2,4,8.3|
2,5,5.7|
2,6,1.3|
2,7,4.3|
3,0,9.2|
3,1,5.9|
3,2,8.3|
3,3,9.1|
3,4,8.3|
3,5,7.1|
3,6,5.9|
3,7,0.69|
4,0,6|
4,1,3.2|
4,2,2.5|
4,3,0.047|
4,4,9.6|
4,5,9.3|
4,6,5.1|
4,7,0.43|
5,0,7.1|
5,1,0.93|
5,2,1.7|
5,3,7.9|
5,4,4.3|
5,5,7.6|
5,6,7.1|
5,7,7.1|
6,0,0.5|
6,1,5.4|
6,2,9|
6,3,3.1|
6,4,1.6|
6,5,6.4|
6,6,8.8|
6,7,2|
7,0,0.42|
7,1,6.8|
7,2,3|
7,3,9.5|
7,4,2.4|
7,5,7.6|
7,6,7.6|
7,7,7.2|
];
constraint_x2_y2=[
0,0,1.7|
0,1,5.6|
0,2,0.12|
0,3,1.5|
0,4,4.9|
0,5,5.4|
0,6,6.9|
0,7,7.9|
1,0,8|
1,1,1.1|
1,2,9.8|
1,3,4.4|
1,4,9.8|
1,5,7.9|
1,6,4.4|
1,7,2.4|
2,0,6.4|
2,1,9.2|
2,2,3.1|
2,3,8.3|
2,4,0.32|
2,5,7.6|
2,6,9.6|
2,7,0.75|
3,0,9.7|
3,1,7.4|
3,2,3.1|
3,3,4.2|
3,4,4.7|
3,5,0.52|
3,6,9.6|
3,7,5.6|
4,0,7.7|
4,1,5.4|
4,2,2.6|
4,3,8.1|
4,4,2.3|
4,5,7.6|
4,6,1.2|
4,7,2.3|
5,0,2.7|
5,1,8.4|
5,2,5.3|
5,3,5.2|
5,4,6|
5,5,2|
5,6,6.1|
5,7,6|
6,0,1.6|
6,1,4.2|
6,2,7.9|
6,3,4.8|
6,4,10|
6,5,2.5|
6,6,2.3|
6,7,2.4|
7,0,1.8|
7,1,4.8|
7,2,6.5|
7,3,6.8|
7,4,6.1|
7,5,7.3|
7,6,6.4|
7,7,6.3|
];
constraint_x3_y3=[
0,0,0.92|
0,1,0.84|
0,2,2.1|
0,3,6.8|
0,4,3|
0,5,5.5|
0,6,9.4|
0,7,1.6|
1,0,5.1|
1,1,4.7|
1,2,1.2|
1,3,3.8|
1,4,2.6|
1,5,7.9|
1,6,1.8|
1,7,2.4|
2,0,8.8|
2,1,6.6|
2,2,0.61|
2,3,1.8|
2,4,9|
2,5,8.4|
2,6,1.4|
2,7,9|
3,0,8.4|
3,1,9.6|
3,2,1.4|
3,3,6.5|
3,4,8.2|
3,5,1.1|
3,6,7.1|
3,7,6.3|
4,0,7.2|
4,1,7.9|
4,2,2.8|
4,3,7.1|
4,4,2.2|
4,5,3.5|
4,6,5.3|
4,7,5|
5,0,5.3|
5,1,7.6|
5,2,6.8|
5,3,6.3|
5,4,8.2|
5,5,4.5|
5,6,0.071|
5,7,7.5|
6,0,3.6|
6,1,4.9|
6,2,8.1|
6,3,6.8|
6,4,2|
6,5,1.6|
6,6,9.7|
6,7,0.39|
7,0,9.8|
7,1,5.7|
7,2,6|
7,3,6.1|
7,4,9.9|
7,5,1.5|
7,6,6.2|
7,7,6.3|
];
constraint_x4_y4=[
0,0,4|
0,1,0.29|
0,2,6.3|
0,3,2.8|
0,4,8.8|
0,5,8|
0,6,1.9|
0,7,6.2|
1,0,6.8|
1,1,3|
1,2,3.6|
1,3,2.4|
1,4,0.59|
1,5,7.7|
1,6,2.9|
1,7,1.9|
2,0,2.9|
2,1,3.1|
2,2,3.1|
2,3,0.38|
2,4,5.5|
2,5,5|
2,6,6.4|
2,7,9.4|
3,0,4.2|
3,1,3.9|
3,2,3.5|
3,3,4|
3,4,9.1|
3,5,8.6|
3,6,9.5|
3,7,3|
4,0,7.4|
4,1,7|
4,2,9|
4,3,8.6|
4,4,6.9|
4,5,4.7|
4,6,6.8|
4,7,8.2|
5,0,5.2|
5,1,6.1|
5,2,6.7|
5,3,6.3|
5,4,9.4|
5,5,2.3|
5,6,6.9|
5,7,7.7|
6,0,3.4|
6,1,6.1|
6,2,7|
6,3,6.4|
6,4,0.51|
6,5,3|
6,6,9.9|
6,7,1.4|
7,0,2.6|
7,1,3.1|
7,2,9.5|
7,3,6.6|
7,4,4.8|
7,5,4.6|
7,6,2.7|
7,7,9.8|
];
constraint_x5_y5=[
0,0,7.2|
0,1,4.8|
0,2,8.5|
0,3,1.9|
0,4,1.9|
0,5,5.6|
0,6,5.6|
0,7,2.6|
1,0,2.9|
1,1,4.2|
1,2,3.2|
1,3,9.8|
1,4,2.6|
1,5,8.1|
1,6,9.5|
1,7,1.8|
2,0,4.4|
2,1,3.6|
2,2,8.3|
2,3,4|
2,4,1.6|
2,5,1.8|
2,6,8.1|
2,7,6.7|
3,0,0.37|
3,1,0.4|
3,2,6.9|
3,3,2.9|
3,4,7.9|
3,5,4.9|
3,6,0.36|
3,7,1.3|
4,0,6.1|
4,1,0.45|
4,2,0.45|
4,3,1.8|
4,4,6.3|
4,5,6.8|
4,6,2.8|
4,7,5.5|
5,0,8.7|
5,1,4.7|
5,2,9.1|
5,3,4|
5,4,2.9|
5,5,6.3|
5,6,3.5|
5,7,3.6|
6,0,2.9|
6,1,2.3|
6,2,9.8|
6,3,1.8|
6,4,9.5|
6,5,6.9|
6,6,3.9|
6,7,2.9|
7,0,6.6|
7,1,5.8|
7,2,0.66|
7,3,8.4|
7,4,9.7|
7,5,3.3|
7,6,8.3|
7,7,8.5|
];
constraint_x6_y6=[
0,0,0.3|
0,1,5.1|
0,2,3.3|
0,3,5|
0,4,0.26|
0,5,2.1|
0,6,8|
0,7,0.86|
1,0,8.5|
1,1,9.3|
1,2,9.5|
1,3,5.1|
1,4,5.1|
1,5,5|
1,6,5.4|
1,7,6.9|
2,0,7.1|
2,1,4.9|
2,2,3.2|
2,3,9|
2,4,9|
2,5,9.2|
2,6,3.6|
2,7,8.6|
3,0,9.7|
3,1,4.3|
3,2,5.3|
3,3,0.67|
3,4,9.5|
3,5,2.6|
3,6,6.3|
3,7,3.4|
4,0,7.3|
4,1,5.2|
4,2,8.2|
4,3,2.9|
4,4,2.3|
4,5,1.8|
4,6,4.7|
4,7,3.3|
5,0,1.8|
5,1,7.6|
5,2,3.5|
5,3,7.4|
5,4,3.1|
5,5,8.4|
5,6,9|
5,7,6|
6,0,6.3|
6,1,0.72|
6,2,2.5|
6,3,5.6|
6,4,1.4|
6,5,2.9|
6,6,5.6|
6,7,1.2|
7,0,0.44|
7,1,9.7|
7,2,6.9|
7,3,9.6|
7,4,9.5|
7,5,4.1|
7,6,2.7|
7,7,6.8|
];
constraint_x7_y7=[
0,0,6.8|
0,1,2|
0,2,5.6|
0,3,7.1|
0,4,1.2|
0,5,3.7|
0,6,0.57|
0,7,0.75|
1,0,2.7|
1,1,5.5|
1,2,3.7|
1,3,8.1|
1,4,5.9|
1,5,7|
1,6,2|
1,7,5.7|
2,0,2.6|
2,1,8.1|
2,2,7.1|
2,3,6|
2,4,1|
2,5,7.5|
2,6,8.2|
2,7,3.9|
3,0,5.5|
3,1,6.3|
3,2,8|
3,3,0.42|
3,4,4.2|
3,5,0.64|
3,6,8.8|
3,7,7.5|
4,0,8.5|
4,1,1.4|
4,2,8.2|
4,3,2|
4,4,4.6|
4,5,7|
4,6,2.9|
4,7,8|
5,0,7.1|
5,1,6|
5,2,5.6|
5,3,4.8|
5,4,0.36|
5,5,5.5|
5,6,9|
5,7,0.15|
6,0,3.8|
6,1,7.2|
6,2,4.8|
6,3,8|
6,4,3.6|
6,5,9.8|
6,6,9.4|
6,7,8.5|
7,0,8.8|
7,1,10|
7,2,4.2|
7,3,2.4|
7,4,1.8|
7,5,3.7|
7,6,9.6|
7,7,9.5|
];
constraint_x8_y8=[
0,0,3.9|
0,1,5.7|
0,2,9.7|
0,3,6.8|
0,4,4.7|
0,5,8|
0,6,7.3|
0,7,0.9|
1,0,5|
1,1,3.8|
1,2,7.8|
1,3,3.7|
1,4,9|
1,5,2.8|
1,6,0.25|
1,7,9|
2,0,6.2|
2,1,8.8|
2,2,5.3|
2,3,6.8|
2,4,4.7|
2,5,3.9|
2,6,8.5|
2,7,8.7|
3,0,5.5|
3,1,2|
3,2,3.2|
3,3,5.1|
3,4,9.8|
3,5,4.5|
3,6,8.7|
3,7,6.1|
4,0,1|
4,1,1.2|
4,2,1.5|
4,3,3|
4,4,9.6|
4,5,2.3|
4,6,3.2|
4,7,7.8|
5,0,8|
5,1,3.1|
5,2,2.6|
5,3,10|
5,4,5.9|
5,5,3.2|
5,6,7.2|
5,7,5.3|
6,0,2.3|
6,1,3.3|
6,2,7.3|
6,3,5|
6,4,2.3|
6,5,5.5|
6,6,8.6|
6,7,0.21|
7,0,6.1|
7,1,3.4|
7,2,5|
7,3,3.8|
7,4,5.6|
7,5,2.2|
7,6,3|
7,7,0.59|
];
constraint_x9_y9=[
0,0,8.4|
0,1,9.4|
0,2,2.8|
0,3,3|
0,4,0.043|
0,5,4.7|
0,6,8.6|
0,7,9.9|
1,0,6.7|
1,1,2.7|
1,2,5.5|
1,3,9.7|
1,4,1.8|
1,5,1|
1,6,5|
1,7,5.5|
2,0,6.1|
2,1,7.7|
2,2,6.1|
2,3,8.2|
2,4,10|
2,5,5.6|
2,6,1.8|
2,7,8|
3,0,5.1|
3,1,8.5|
3,2,3.6|
3,3,0.44|
3,4,6.9|
3,5,2.7|
3,6,0.67|
3,7,2.6|
4,0,1.6|
4,1,3.6|
4,2,4.3|
4,3,5.5|
4,4,9.2|
4,5,1.4|
4,6,5|
4,7,5.3|
5,0,9.2|
5,1,6.5|
5,2,8|
5,3,8.3|
5,4,6.9|
5,5,6.9|
5,6,1.9|
5,7,8.4|
6,0,7.2|
6,1,5.4|
6,2,7.8|
6,3,2.8|
6,4,0.94|
6,5,9.2|
6,6,4.8|
6,7,1.6|
7,0,9|
7,1,0.58|
7,2,4.5|
7,3,4.2|
7,4,8.7|
7,5,4.3|
7,6,10|
7,7,9.3|
];
initial_distribution_y1=[0.12,0.22,0.055,0.2,0.11,0.021,0.17,0.1];
initial_distribution_y2=[0.051,0.14,0.11,0.18,0.16,0.14,0.075,0.15];
initial_distribution_y3=[0.11,0.15,0.15,0.15,0.086,0.06,0.13,0.17];
initial_distribution_y4=[0.067,0.29,0.23,0.11,0.11,0.01,0.18,0.008];
initial_distribution_y5=[0.06,0.059,0.058,0.18,0.18,0.12,0.18,0.17];
initial_distribution_y6=[0.12,0.18,0.31,0.024,0.26,0.0054,0.036,0.071];
initial_distribution_y7=[0.088,0.14,0.19,0.014,0.04,0.16,0.17,0.2];
initial_distribution_y8=[0.14,0.037,0.23,0.21,0.093,0.13,0.15,0.018];
initial_distribution_y9=[0.13,0.2,0.076,0.14,0.17,0.13,0.015,0.14];
transition_y1=[
0.13,0.08,0.093,0.13,0.12,0.18,0.11,0.16|
0.25,0.025,0.24,0.008,0.045,0.24,0.056,0.14|
0.11,0.21,0.06,0.059,0.06,0.16,0.033,0.31|
0.21,0.2,0.12,0.038,0.021,0.2,0.04,0.17|
0.23,0.097,0.098,0.19,0.073,0.23,0.028,0.049|
0.052,0.21,0.18,0.05,0.23,0.011,0.029,0.24|
0.15,0.14,0.12,0.13,0.12,0.11,0.064,0.17|
0.19,0.19,0.082,0.14,0.19,0.043,0.14,0.033|
];
transition_y2=[
0.065,0.21,0.027,0.042,0.21,0.19,0.21,0.04|
0.06,0.1,0.16,0.1,0.21,0.2,0.074,0.1|
0.23,0.025,0.003,0.14,0.094,0.021,0.23,0.26|
0.051,0.077,0.22,0.25,0.0067,0.2,0.16,0.03|
0.079,0.11,0.2,0.051,0.091,0.19,0.052,0.22|
0.18,0.076,0.01,0.13,0.2,0.072,0.15,0.17|
0.2,0.22,0.046,0.022,0.054,0.14,0.23,0.094|
0.05,0.0051,0.093,0.13,0.062,0.24,0.089,0.33|
];
transition_y3=[
0.21,0.17,0.19,0.072,0.21,0.046,0.024,0.071|
0.043,0.16,0.12,0.28,0.0056,0.046,0.27,0.081|
0.16,0.15,0.19,0.23,0.19,0.017,0.023,0.034|
0.19,0.0082,0.16,0.16,0.086,0.058,0.17,0.17|
0.13,0.2,0.14,0.11,0.021,0.082,0.16,0.15|
0.17,0.045,0.054,0.026,0.27,0.067,0.32,0.051|
0.032,0.074,0.14,0.095,0.23,0.19,0.19,0.048|
0.14,0.057,0.19,0.084,0.11,0.18,0.15,0.085|
];
transition_y4=[
0.054,0.22,0.033,0.27,0.22,0.07,0.058,0.086|
0.14,0.13,0.06,0.021,0.16,0.081,0.19,0.22|
0.18,0.099,0.23,0.04,0.17,0.15,0.085,0.042|
0.15,0.077,0.34,0.11,0.02,0.012,0.17,0.13|
0.06,0.2,0.17,0.14,0.11,0.038,0.092,0.19|
0.14,0.16,0.018,0.061,0.14,0.18,0.16,0.13|
0.14,0.15,0.067,0.18,0.24,0.048,0.036,0.13|
0.11,0.077,0.24,0.11,0.22,0.066,0.078,0.1|
];
transition_y5=[
0.2,0.3,0.11,0.049,0.046,0.013,0.03,0.25|
0.21,0.15,0.21,0.19,0.032,0.063,0.095,0.049|
0.14,0.2,0.18,0.12,0.044,0.18,0.03,0.1|
0.23,0.051,0.19,0.12,0.13,0.081,0.15,0.051|
0.076,0.16,0.059,0.029,0.048,0.36,0.22,0.052|
0.054,0.17,0.076,0.13,0.17,0.17,0.18,0.052|
0.17,0.17,0.15,0.12,0.017,0.082,0.16,0.14|
0.063,0.087,0.084,0.24,0.15,0.019,0.14,0.21|
];
transition_y6=[
0.11,0.13,0.15,0.015,0.18,0.17,0.047,0.19|
0.16,0.14,0.044,0.17,0.17,0.23,0.0062,0.069|
0.1,0.1,0.19,0.083,0.2,0.19,0.087,0.04|
0.034,0.16,0.23,0.09,0.093,0.15,0.23,0.006|
0.19,0.062,0.14,0.18,0.094,0.14,0.045,0.16|
0.19,0.063,0.21,0.048,0.17,0.13,0.05,0.14|
0.17,0.13,0.058,0.23,0.19,0.027,0.12,0.077|
0.011,0.18,0.11,0.065,0.14,0.19,0.16,0.15|
];
transition_y7=[
0.21,0.17,0.11,0.083,0.15,0.1,0.0082,0.16|
0.12,0.22,0.12,0.21,0.051,0.035,0.033,0.21|
0.19,0.12,0.14,0.18,0.14,0.089,0.014,0.12|
0.17,0.15,0.065,0.19,0.16,0.066,0.062,0.13|
0.07,0.053,0.18,0.21,0.21,0.097,0.15,0.033|
0.15,0.041,0.19,0.084,0.16,0.22,0.053,0.099|
0.26,0.16,0.031,0.15,0.029,0.079,0.14,0.15|
0.1,0.1,0.16,0.19,0.096,0.16,0.029,0.16|
];
transition_y8=[
0.23,0.016,0.077,0.28,0.25,0.046,0.1,0.0041|
0.22,0.21,0.037,0.0089,0.17,0.22,0.021,0.11|
0.15,0.064,0.084,0.15,0.11,0.2,0.087,0.16|
0.22,0.022,0.18,0.17,0.062,0.099,0.082,0.16|
0.15,0.17,0.14,0.099,0.15,0.16,0.015,0.11|
0.1,0.18,0.13,0.27,0.091,0.032,0.18,0.01|
0.13,0.16,0.04,0.069,0.14,0.13,0.21,0.12|
0.037,0.17,0.22,0.088,0.2,0.2,0.025,0.057|
];
transition_y9=[
0.024,0.16,0.16,0.081,0.16,0.016,0.2,0.19|
0.095,0.075,0.11,0.23,0.11,0.048,0.14,0.19|
0.17,0.18,0.17,0.058,0.086,0.13,0.19,0.0096|
0.16,0.087,0.17,0.044,0.084,0.16,0.12,0.18|
0.1,0.067,0.07,0.25,0.24,0.062,0.042,0.17|
0.22,0.036,0.043,0.19,0.029,0.2,0.26,0.025|
0.044,0.043,0.15,0.21,0.013,0.15,0.17,0.22|
0.14,0.042,0.2,0.11,0.063,0.067,0.2,0.17|
];
